; SLOAD SWAP1 SWAP2 SWAP1 DUP2 SWAP1 => DUP3 SWAP2 SWAP3 SWAP1 SLOAD
(set-option :produce-proofs true)
; 
(set-info :status unknown)
(declare-fun storage_t ((_ BitVec 256) (_ BitVec 256) (_ BitVec 256) (_ BitVec 256) Int (_ BitVec 256)) (_ BitVec 256))
(declare-fun storage_s ((_ BitVec 256) (_ BitVec 256) (_ BitVec 256) (_ BitVec 256) Int (_ BitVec 256)) (_ BitVec 256))
(declare-fun exc_halt_t (Int) Bool)
(declare-fun exc_halt_s (Int) Bool)
(declare-fun sc_t (Int) (_ BitVec 6))
(declare-fun stack_t ((_ BitVec 256) (_ BitVec 256) (_ BitVec 256) (_ BitVec 256) Int (_ BitVec 6)) (_ BitVec 256))
(declare-fun stack_s ((_ BitVec 256) (_ BitVec 256) (_ BitVec 256) (_ BitVec 256) Int (_ BitVec 6)) (_ BitVec 256))
(declare-fun sc_s (Int) (_ BitVec 6))
(declare-fun used_gas_t ((_ BitVec 256) (_ BitVec 256) (_ BitVec 256) (_ BitVec 256) Int) Int)
(declare-fun used_gas_s ((_ BitVec 256) (_ BitVec 256) (_ BitVec 256) (_ BitVec 256) Int) Int)
(assert
 (exists ((x_0 (_ BitVec 256)) (x_1 (_ BitVec 256)) (x_2 (_ BitVec 256)) (x_SLOAD_0 (_ BitVec 256)) )(let (($x10029 (forall ((w (_ BitVec 256)) )(let ((?x2231 (storage_t x_0 x_1 x_2 x_SLOAD_0 5 w)))
 (let ((?x3362 (storage_s x_0 x_1 x_2 x_SLOAD_0 6 w)))
 (= ?x3362 ?x2231))))
 ))
 (let (($x10311 (exc_halt_t 5)))
 (let (($x7121 (exc_halt_s 6)))
 (let (($x4790 (= $x7121 $x10311)))
 (let (($x2301 (forall ((n (_ BitVec 6)) )(let ((?x10036 (sc_t 5)))
 (let (($x1626 (bvsle ?x10036 n)))
 (let ((?x1805 (stack_t x_0 x_1 x_2 x_SLOAD_0 5 n)))
 (let ((?x4205 (stack_s x_0 x_1 x_2 x_SLOAD_0 6 n)))
 (let (($x827 (= ?x4205 ?x1805)))
 (or $x827 $x1626)))))))
 ))
 (let ((?x10036 (sc_t 5)))
 (let ((?x9114 (sc_s 6)))
 (let (($x6242 (= ?x9114 ?x10036)))
 (let ((?x3785 (used_gas_t x_0 x_1 x_2 x_SLOAD_0 0)))
 (let ((?x1290 (used_gas_s x_0 x_1 x_2 x_SLOAD_0 0)))
 (let (($x92 (= ?x1290 ?x3785)))
 (let (($x7898 (forall ((w (_ BitVec 256)) )(let ((?x10174 (storage_t x_0 x_1 x_2 x_SLOAD_0 0 w)))
 (let ((?x838 (storage_s x_0 x_1 x_2 x_SLOAD_0 0 w)))
 (= ?x838 ?x10174))))
 ))
 (let (($x56 (exc_halt_t 0)))
 (let (($x57 (exc_halt_s 0)))
 (let (($x58 (= $x57 $x56)))
 (let (($x10137 (forall ((n (_ BitVec 6)) )(let ((?x63 (sc_t 0)))
 (let (($x11418 (bvsle ?x63 n)))
 (let ((?x655 (stack_t x_0 x_1 x_2 x_SLOAD_0 0 n)))
 (let ((?x8757 (stack_s x_0 x_1 x_2 x_SLOAD_0 0 n)))
 (let (($x1719 (= ?x8757 ?x655)))
 (or $x1719 $x11418)))))))
 ))
 (let ((?x63 (sc_t 0)))
 (let ((?x72 (sc_s 0)))
 (let (($x73 (= ?x72 ?x63)))
 (let (($x9354 (= $x10311 (or (exc_halt_t 4) (not (bvsle (_ bv0 6) (bvadd (_ bv63 6) (sc_t 4))))))))
 (let (($x6816 (forall ((w (_ BitVec 256)) )(let ((?x5542 (storage_t x_0 x_1 x_2 x_SLOAD_0 4 w)))
 (let ((?x2231 (storage_t x_0 x_1 x_2 x_SLOAD_0 5 w)))
 (= ?x2231 ?x5542))))
 ))
 (let (($x2825 (forall ((n (_ BitVec 6)) )(let ((?x7495 (sc_t 4)))
 (let ((?x3264 (bvadd (_ bv63 6) ?x7495)))
 (let (($x10456 (bvsle ?x3264 n)))
 (let ((?x2049 (stack_t x_0 x_1 x_2 x_SLOAD_0 4 n)))
 (let ((?x1805 (stack_t x_0 x_1 x_2 x_SLOAD_0 5 n)))
 (or (= ?x1805 ?x2049) $x10456)))))))
 ))
 (let (($x8479 (= (used_gas_t x_0 x_1 x_2 x_SLOAD_0 5) (+ 200 (used_gas_t x_0 x_1 x_2 x_SLOAD_0 4)))))
 (let ((?x7495 (sc_t 4)))
 (let ((?x3264 (bvadd (_ bv63 6) ?x7495)))
 (let ((?x8975 (stack_t x_0 x_1 x_2 x_SLOAD_0 4 ?x3264)))
 (let (($x6786 (= (stack_t x_0 x_1 x_2 x_SLOAD_0 5 (bvadd (_ bv63 6) ?x10036)) (storage_t x_0 x_1 x_2 x_SLOAD_0 4 ?x8975))))
 (let (($x7854 (exc_halt_t 4)))
 (let (($x1313 (= $x7854 (or (exc_halt_t 3) (not (bvsle (_ bv0 6) (bvadd (_ bv62 6) (sc_t 3))))))))
 (let (($x10000 (forall ((w (_ BitVec 256)) )(let ((?x2566 (storage_t x_0 x_1 x_2 x_SLOAD_0 3 w)))
 (let ((?x5542 (storage_t x_0 x_1 x_2 x_SLOAD_0 4 w)))
 (= ?x5542 ?x2566))))
 ))
 (let (($x4834 (forall ((n (_ BitVec 6)) )(let ((?x5967 (stack_t x_0 x_1 x_2 x_SLOAD_0 3 n)))
 (let ((?x2049 (stack_t x_0 x_1 x_2 x_SLOAD_0 4 n)))
 (or (bvsle (bvadd (_ bv62 6) (sc_t 3)) n) (= ?x2049 ?x5967)))))
 ))
 (let ((?x10013 (sc_t 3)))
 (let (($x8756 (= ?x7495 ?x10013)))
 (let ((?x1217 (used_gas_t x_0 x_1 x_2 x_SLOAD_0 4)))
 (let ((?x1933 (bvadd (_ bv63 6) ?x10013)))
 (let ((?x1687 (stack_t x_0 x_1 x_2 x_SLOAD_0 3 ?x1933)))
 (let (($x9131 (exc_halt_t 3)))
 (let (($x3237 (= $x9131 (or (exc_halt_t 2) (not (bvsle (_ bv0 6) (bvadd (_ bv60 6) (sc_t 2))))))))
 (let (($x6942 (forall ((w (_ BitVec 256)) )(let ((?x329 (storage_t x_0 x_1 x_2 x_SLOAD_0 2 w)))
 (let ((?x2566 (storage_t x_0 x_1 x_2 x_SLOAD_0 3 w)))
 (= ?x2566 ?x329))))
 ))
 (let (($x10292 (forall ((n (_ BitVec 6)) )(let ((?x9515 (stack_t x_0 x_1 x_2 x_SLOAD_0 2 n)))
 (let ((?x5967 (stack_t x_0 x_1 x_2 x_SLOAD_0 3 n)))
 (or (bvsle (bvadd (_ bv60 6) (sc_t 2)) n) (= ?x5967 ?x9515)))))
 ))
 (let ((?x2967 (used_gas_t x_0 x_1 x_2 x_SLOAD_0 3)))
 (let ((?x9193 (sc_t 2)))
 (let ((?x11577 (bvadd (_ bv62 6) ?x9193)))
 (let ((?x697 (stack_t x_0 x_1 x_2 x_SLOAD_0 2 ?x11577)))
 (let ((?x4402 (bvadd (_ bv62 6) ?x10013)))
 (let ((?x130 (stack_t x_0 x_1 x_2 x_SLOAD_0 3 ?x4402)))
 (let ((?x10671 (bvadd (_ bv61 6) ?x9193)))
 (let ((?x563 (stack_t x_0 x_1 x_2 x_SLOAD_0 2 ?x10671)))
 (let ((?x8475 (bvadd (_ bv63 6) ?x9193)))
 (let ((?x6773 (stack_t x_0 x_1 x_2 x_SLOAD_0 2 ?x8475)))
 (let (($x10380 (exc_halt_t 2)))
 (let (($x947 (= $x10380 (or (exc_halt_t 1) (not (bvsle (_ bv0 6) (bvadd (_ bv61 6) (sc_t 1))))))))
 (let (($x3174 (forall ((w (_ BitVec 256)) )(let ((?x5879 (storage_t x_0 x_1 x_2 x_SLOAD_0 1 w)))
 (let ((?x329 (storage_t x_0 x_1 x_2 x_SLOAD_0 2 w)))
 (= ?x329 ?x5879))))
 ))
 (let (($x10665 (forall ((n (_ BitVec 6)) )(let ((?x1530 (stack_t x_0 x_1 x_2 x_SLOAD_0 1 n)))
 (let ((?x9515 (stack_t x_0 x_1 x_2 x_SLOAD_0 2 n)))
 (or (bvsle (bvadd (_ bv61 6) (sc_t 1)) n) (= ?x9515 ?x1530)))))
 ))
 (let ((?x8615 (sc_t 1)))
 (let (($x10097 (= ?x9193 ?x8615)))
 (let ((?x8734 (used_gas_t x_0 x_1 x_2 x_SLOAD_0 2)))
 (let (($x1467 (not (= ((_ extract 6 6) (bvadd (_ bv1 7) (concat (_ bv0 1) ?x63))) (_ bv0 1)))))
 (let (($x1454 (not (bvsle (_ bv0 6) (bvadd (_ bv61 6) ?x63)))))
 (let (($x11710 (exc_halt_t 1)))
 (let (($x6391 (forall ((w (_ BitVec 256)) )(let ((?x10174 (storage_t x_0 x_1 x_2 x_SLOAD_0 0 w)))
 (let ((?x5879 (storage_t x_0 x_1 x_2 x_SLOAD_0 1 w)))
 (= ?x5879 ?x10174))))
 ))
 (let (($x7396 (forall ((n (_ BitVec 6)) )(let ((?x655 (stack_t x_0 x_1 x_2 x_SLOAD_0 0 n)))
 (let ((?x1530 (stack_t x_0 x_1 x_2 x_SLOAD_0 1 n)))
 (let ((?x63 (sc_t 0)))
 (let ((?x11955 (bvadd (_ bv61 6) ?x63)))
 (let (($x251 (bvsle ?x11955 n)))
 (or $x251 (= ?x1530 ?x655))))))))
 ))
 (let (($x2614 (= ?x8615 (bvadd (_ bv1 6) ?x63))))
 (let (($x4444 (= (stack_t x_0 x_1 x_2 x_SLOAD_0 1 (bvadd (_ bv63 6) ?x63)) (stack_t x_0 x_1 x_2 x_SLOAD_0 0 (bvadd (_ bv63 6) ?x63)))))
 (let (($x7708 (= (stack_t x_0 x_1 x_2 x_SLOAD_0 1 (bvadd (_ bv62 6) ?x63)) (stack_t x_0 x_1 x_2 x_SLOAD_0 0 (bvadd (_ bv62 6) ?x63)))))
 (let ((?x11955 (bvadd (_ bv61 6) ?x63)))
 (let ((?x352 (stack_t x_0 x_1 x_2 x_SLOAD_0 0 ?x11955)))
 (let (($x923 (= $x7121 (or (exc_halt_s 5) (not (bvsle (_ bv0 6) (bvadd (_ bv62 6) (sc_s 5))))))))
 (let (($x4376 (forall ((w (_ BitVec 256)) )(let ((?x3176 (storage_s x_0 x_1 x_2 x_SLOAD_0 5 w)))
 (let ((?x3362 (storage_s x_0 x_1 x_2 x_SLOAD_0 6 w)))
 (= ?x3362 ?x3176))))
 ))
 (let (($x6928 (forall ((n (_ BitVec 6)) )(let ((?x7921 (stack_s x_0 x_1 x_2 x_SLOAD_0 5 n)))
 (let ((?x4205 (stack_s x_0 x_1 x_2 x_SLOAD_0 6 n)))
 (or (bvsle (bvadd (_ bv62 6) (sc_s 5)) n) (= ?x4205 ?x7921)))))
 ))
 (let (($x8033 (= (used_gas_s x_0 x_1 x_2 x_SLOAD_0 6) (+ 3 (used_gas_s x_0 x_1 x_2 x_SLOAD_0 5)))))
 (let ((?x4319 (sc_s 5)))
 (let ((?x711 (bvadd (_ bv63 6) ?x4319)))
 (let ((?x8932 (stack_s x_0 x_1 x_2 x_SLOAD_0 5 ?x711)))
 (let (($x4068 (= (stack_s x_0 x_1 x_2 x_SLOAD_0 6 (bvadd (_ bv63 6) ?x9114)) (stack_s x_0 x_1 x_2 x_SLOAD_0 5 (bvadd (_ bv62 6) ?x4319)))))
 (let (($x9175 (exc_halt_s 4)))
 (let (($x2746 (or (not (= ((_ extract 6 6) (bvadd (_ bv1 7) (concat (_ bv0 1) (sc_s 4)))) (_ bv0 1))) (not (bvsle (_ bv0 6) (bvadd (_ bv62 6) (sc_s 4)))) $x9175)))
 (let (($x1862 (exc_halt_s 5)))
 (let (($x7805 (forall ((w (_ BitVec 256)) )(let ((?x4743 (storage_s x_0 x_1 x_2 x_SLOAD_0 4 w)))
 (let ((?x3176 (storage_s x_0 x_1 x_2 x_SLOAD_0 5 w)))
 (= ?x3176 ?x4743))))
 ))
 (let (($x4952 (forall ((n (_ BitVec 6)) )(let ((?x1682 (stack_s x_0 x_1 x_2 x_SLOAD_0 4 n)))
 (let ((?x7921 (stack_s x_0 x_1 x_2 x_SLOAD_0 5 n)))
 (or (= ?x7921 ?x1682) (bvsle (bvadd (_ bv62 6) (sc_s 4)) n)))))
 ))
 (let ((?x9460 (used_gas_s x_0 x_1 x_2 x_SLOAD_0 5)))
 (let ((?x9433 (sc_s 4)))
 (let ((?x6129 (bvadd (_ bv63 6) ?x9433)))
 (let ((?x6783 (stack_s x_0 x_1 x_2 x_SLOAD_0 4 ?x6129)))
 (let ((?x7666 (bvadd (_ bv62 6) ?x9433)))
 (let ((?x521 (stack_s x_0 x_1 x_2 x_SLOAD_0 4 ?x7666)))
 (let (($x6103 (= $x9175 (or (exc_halt_s 3) (not (bvsle (_ bv0 6) (bvadd (_ bv62 6) (sc_s 3))))))))
 (let (($x5731 (forall ((w (_ BitVec 256)) )(let ((?x5689 (storage_s x_0 x_1 x_2 x_SLOAD_0 3 w)))
 (let ((?x4743 (storage_s x_0 x_1 x_2 x_SLOAD_0 4 w)))
 (= ?x4743 ?x5689))))
 ))
 (let (($x1675 (forall ((n (_ BitVec 6)) )(let ((?x3851 (sc_s 3)))
 (let ((?x7786 (bvadd (_ bv62 6) ?x3851)))
 (let (($x11714 (bvsle ?x7786 n)))
 (let ((?x11716 (stack_s x_0 x_1 x_2 x_SLOAD_0 3 n)))
 (let ((?x1682 (stack_s x_0 x_1 x_2 x_SLOAD_0 4 n)))
 (or (= ?x1682 ?x11716) $x11714)))))))
 ))
 (let ((?x3851 (sc_s 3)))
 (let (($x951 (= ?x9433 ?x3851)))
 (let ((?x1417 (used_gas_s x_0 x_1 x_2 x_SLOAD_0 4)))
 (let (($x8103 (exc_halt_s 3)))
 (let (($x680 (= $x8103 (or (exc_halt_s 2) (not (bvsle (_ bv0 6) (bvadd (_ bv61 6) (sc_s 2))))))))
 (let (($x5081 (forall ((w (_ BitVec 256)) )(let ((?x6012 (storage_s x_0 x_1 x_2 x_SLOAD_0 2 w)))
 (let ((?x5689 (storage_s x_0 x_1 x_2 x_SLOAD_0 3 w)))
 (= ?x5689 ?x6012))))
 ))
 (let (($x1857 (forall ((n (_ BitVec 6)) )(let ((?x3624 (stack_s x_0 x_1 x_2 x_SLOAD_0 2 n)))
 (let ((?x11716 (stack_s x_0 x_1 x_2 x_SLOAD_0 3 n)))
 (let ((?x2272 (sc_s 2)))
 (let ((?x5654 (bvadd (_ bv61 6) ?x2272)))
 (let (($x1571 (bvsle ?x5654 n)))
 (or $x1571 (= ?x11716 ?x3624))))))))
 ))
 (let ((?x2272 (sc_s 2)))
 (let (($x5056 (= ?x3851 ?x2272)))
 (let ((?x11521 (used_gas_s x_0 x_1 x_2 x_SLOAD_0 3)))
 (let ((?x9521 (bvadd (_ bv62 6) ?x2272)))
 (let ((?x8591 (stack_s x_0 x_1 x_2 x_SLOAD_0 2 ?x9521)))
 (let ((?x7786 (bvadd (_ bv62 6) ?x3851)))
 (let ((?x4733 (stack_s x_0 x_1 x_2 x_SLOAD_0 3 ?x7786)))
 (let ((?x4124 (bvadd (_ bv63 6) ?x2272)))
 (let ((?x10614 (stack_s x_0 x_1 x_2 x_SLOAD_0 2 ?x4124)))
 (let ((?x819 (bvadd (_ bv63 6) ?x3851)))
 (let ((?x10740 (stack_s x_0 x_1 x_2 x_SLOAD_0 3 ?x819)))
 (let (($x10052 (exc_halt_s 2)))
 (let (($x8208 (= $x10052 (or (exc_halt_s 1) (not (bvsle (_ bv0 6) (bvadd (_ bv62 6) (sc_s 1))))))))
 (let (($x2826 (forall ((w (_ BitVec 256)) )(let ((?x2369 (storage_s x_0 x_1 x_2 x_SLOAD_0 1 w)))
 (let ((?x6012 (storage_s x_0 x_1 x_2 x_SLOAD_0 2 w)))
 (= ?x6012 ?x2369))))
 ))
 (let (($x4091 (forall ((n (_ BitVec 6)) )(let ((?x6356 (stack_s x_0 x_1 x_2 x_SLOAD_0 1 n)))
 (let ((?x3624 (stack_s x_0 x_1 x_2 x_SLOAD_0 2 n)))
 (let ((?x154 (sc_s 1)))
 (let ((?x9338 (bvadd (_ bv62 6) ?x154)))
 (let (($x1590 (bvsle ?x9338 n)))
 (or $x1590 (= ?x3624 ?x6356))))))))
 ))
 (let ((?x154 (sc_s 1)))
 (let (($x2606 (= ?x2272 ?x154)))
 (let ((?x6732 (used_gas_s x_0 x_1 x_2 x_SLOAD_0 2)))
 (let (($x5739 (forall ((w (_ BitVec 256)) )(let ((?x838 (storage_s x_0 x_1 x_2 x_SLOAD_0 0 w)))
 (let ((?x2369 (storage_s x_0 x_1 x_2 x_SLOAD_0 1 w)))
 (= ?x2369 ?x838))))
 ))
 (let (($x8891 (forall ((n (_ BitVec 6)) )(let ((?x72 (sc_s 0)))
 (let ((?x9431 (bvadd (_ bv63 6) ?x72)))
 (let (($x8622 (bvsle ?x9431 n)))
 (let ((?x8757 (stack_s x_0 x_1 x_2 x_SLOAD_0 0 n)))
 (let ((?x6356 (stack_s x_0 x_1 x_2 x_SLOAD_0 1 n)))
 (or (= ?x6356 ?x8757) $x8622)))))))
 ))
 (let (($x11779 (= ?x154 ?x72)))
 (let ((?x1218 (storage_s x_0 x_1 x_2 x_SLOAD_0 0 (stack_s x_0 x_1 x_2 x_SLOAD_0 0 (bvadd (_ bv63 6) ?x72)))))
 (let ((?x3025 (bvadd (_ bv63 6) ?x154)))
 (let ((?x10003 (stack_s x_0 x_1 x_2 x_SLOAD_0 1 ?x3025)))
 (let (($x9641 (forall ((w (_ BitVec 256)) )(let (($x5183 (= w (stack_s x_0 x_1 x_2 x_SLOAD_0 0 (bvadd (_ bv63 6) (sc_s 0))))))
 (let ((?x838 (storage_s x_0 x_1 x_2 x_SLOAD_0 0 w)))
 (= ?x838 (ite $x5183 x_SLOAD_0 (_ bv0 256))))))
 ))
 (let (($x8531 (= ?x1290 0)))
 (let (($x10706 (not $x57)))
 (let (($x2804 (= (stack_s x_0 x_1 x_2 x_SLOAD_0 0 (_ bv2 6)) x_2)))
 (let (($x10453 (= (stack_s x_0 x_1 x_2 x_SLOAD_0 0 (_ bv1 6)) x_1)))
 (let (($x7539 (= (stack_s x_0 x_1 x_2 x_SLOAD_0 0 (_ bv0 6)) x_0)))
 (let (($x9108 (= ?x72 (_ bv3 6))))
 (and $x9108 $x7539 $x10453 $x2804 $x10706 $x8531 $x9641 (= ?x10003 ?x1218) (= (used_gas_s x_0 x_1 x_2 x_SLOAD_0 1) (+ 200 ?x1290)) $x11779 $x8891 $x5739 (= (exc_halt_s 1) (or $x57 (not (bvsle (_ bv0 6) (bvadd (_ bv63 6) ?x72))))) (= ?x10614 (stack_s x_0 x_1 x_2 x_SLOAD_0 1 (bvadd (_ bv62 6) ?x154))) (= ?x8591 ?x10003) (= ?x6732 (+ 3 (used_gas_s x_0 x_1 x_2 x_SLOAD_0 1))) $x2606 $x4091 $x2826 $x8208 (= ?x10740 (stack_s x_0 x_1 x_2 x_SLOAD_0 2 (bvadd (_ bv61 6) ?x2272))) (= (stack_s x_0 x_1 x_2 x_SLOAD_0 3 (bvadd (_ bv61 6) ?x3851)) ?x10614) (= ?x4733 ?x8591) (= ?x11521 (+ 3 ?x6732)) $x5056 $x1857 $x5081 $x680 (= ?x6783 ?x4733) (= ?x521 ?x10740) (= ?x1417 (+ 3 ?x11521)) $x951 $x1675 $x5731 $x6103 (= ?x8932 ?x521) (= (stack_s x_0 x_1 x_2 x_SLOAD_0 5 ?x7666) ?x521) (= (stack_s x_0 x_1 x_2 x_SLOAD_0 5 ?x6129) ?x6783) (= ?x9460 (+ 3 ?x1417)) (= ?x4319 (bvadd (_ bv1 6) ?x9433)) $x4952 $x7805 (= $x1862 $x2746) $x4068 (= (stack_s x_0 x_1 x_2 x_SLOAD_0 6 (bvadd (_ bv62 6) ?x9114)) ?x8932) $x8033 (= ?x9114 ?x4319) $x6928 $x4376 $x923 (= (stack_t x_0 x_1 x_2 x_SLOAD_0 1 (bvadd (_ bv63 6) ?x8615)) ?x352) (= (stack_t x_0 x_1 x_2 x_SLOAD_0 1 ?x11955) ?x352) $x7708 $x4444 (= (used_gas_t x_0 x_1 x_2 x_SLOAD_0 1) (+ 3 ?x3785)) $x2614 $x7396 $x6391 (= $x11710 (or $x56 $x1454 $x1467)) (= ?x6773 (stack_t x_0 x_1 x_2 x_SLOAD_0 1 (bvadd (_ bv61 6) ?x8615))) (= ?x563 (stack_t x_0 x_1 x_2 x_SLOAD_0 1 (bvadd (_ bv63 6) ?x8615))) (= ?x697 (stack_t x_0 x_1 x_2 x_SLOAD_0 1 (bvadd (_ bv62 6) ?x8615))) (= ?x8734 (+ 3 (used_gas_t x_0 x_1 x_2 x_SLOAD_0 1))) $x10097 $x10665 $x3174 $x947 (= ?x1687 (stack_t x_0 x_1 x_2 x_SLOAD_0 2 (bvadd (_ bv60 6) ?x9193))) (= (stack_t x_0 x_1 x_2 x_SLOAD_0 3 (bvadd (_ bv60 6) ?x10013)) ?x6773) (= (stack_t x_0 x_1 x_2 x_SLOAD_0 3 (bvadd (_ bv61 6) ?x10013)) ?x563) (= ?x130 ?x697) (= ?x2967 (+ 3 ?x8734)) (= ?x10013 ?x9193) $x10292 $x6942 $x3237 (= ?x8975 ?x130) (= (stack_t x_0 x_1 x_2 x_SLOAD_0 4 (bvadd (_ bv62 6) ?x7495)) ?x1687) (= ?x1217 (+ 3 ?x2967)) $x8756 $x4834 $x10000 $x1313 $x6786 $x8479 (= ?x10036 ?x7495) $x2825 $x6816 $x9354 $x73 $x10137 $x58 $x7898 $x92 (not (and $x6242 $x2301 $x4790 $x10029)))))))))))))))))))))))))))))))))))))))))))))))))))))))))))))))))))))))))))))))))))))))))))))))))))))))))))))))))))))))))))))))))))
 )
(check-sat)
(get-proof)
